cases/pglib-opf/pglib_opf_case24_ieee_rts.m
ipopt
ACP
[info | PowerModels]: extending matpower format with data: areas 4x3
[info | PowerModels]: removing 1 cost terms from generator 1: [13000.0, 400.6849]
[info | PowerModels]: removing 1 cost terms from generator 29: [0.1, 0.001]
[info | PowerModels]: removing 1 cost terms from generator 2: [13000.0, 400.6849]
[info | PowerModels]: removing 1 cost terms from generator 6: [13000.0, 400.6849]
[info | PowerModels]: removing 1 cost terms from generator 25: [0.1, 0.001]
[info | PowerModels]: removing 1 cost terms from generator 5: [13000.0, 400.6849]
[info | PowerModels]: removing 3 cost terms from generator 15: Float64[]
[info | PowerModels]: removing 1 cost terms from generator 27: [0.1, 0.001]
[info | PowerModels]: removing 1 cost terms from generator 28: [0.1, 0.001]
[info | PowerModels]: removing 1 cost terms from generator 26: [0.1, 0.001]
[info | PowerModels]: removing 1 cost terms from generator 30: [0.1, 0.001]

******************************************************************************
This program contains Ipopt, a library for large-scale nonlinear optimization.
 Ipopt is released as open source code under the Eclipse Public License (EPL).
         For more information visit http://projects.coin-or.org/Ipopt
******************************************************************************

This is Ipopt version 3.13.2, running with linear solver mumps.
NOTE: Other linear solvers might be more efficient (see Ipopt documentation).

Number of nonzeros in equality constraint Jacobian...:      979
Number of nonzeros in inequality constraint Jacobian.:      288
Number of nonzeros in Lagrangian Hessian.............:     1695

Total number of variables............................:      265
                     variables with only lower bounds:        0
                variables with lower and upper bounds:      241
                     variables with only upper bounds:        0
Total number of equality constraints.................:      201
Total number of inequality constraints...............:      144
        inequality constraints with only lower bounds:       34
   inequality constraints with lower and upper bounds:        0
        inequality constraints with only upper bounds:      110

iter    objective    inf_pr   inf_du lg(mu)  ||d||  lg(rg) alpha_du alpha_pr  ls
   0  4.0097983e+04 2.52e+00 4.56e+01  -1.0 0.00e+00    -  0.00e+00 0.00e+00   0
   1  5.6173118e+04 1.56e+00 6.27e+01  -1.0 2.38e+00    -  1.00e-02 3.79e-01h  1
   2  5.3163363e+04 1.35e+00 5.43e+01  -1.0 6.42e+00    -  1.34e-02 1.39e-01f  1
   3  5.2196832e+04 1.33e+00 5.02e+01  -1.0 8.86e+00    -  3.43e-01 1.34e-02f  1
   4  5.3181369e+04 1.06e+00 3.73e+01  -1.0 7.58e+00    -  7.33e-01 2.03e-01h  1
   5  5.5137366e+04 3.87e-01 1.31e+01  -1.0 9.48e+00    -  9.74e-01 6.34e-01H  1
   6  5.4942773e+04 3.18e-01 1.19e+01  -1.0 1.03e+01    -  4.67e-01 1.79e-01f  1
   7  5.5363314e+04 2.73e-01 1.12e+01  -1.0 7.18e+00    -  1.00e+00 1.42e-01h  1
   8  5.5935444e+04 2.33e-01 6.61e+00  -1.0 3.08e+00    -  2.59e-01 1.44e-01h  1
   9  6.2384214e+04 6.41e-02 5.11e+00  -1.0 1.40e+00    -  6.92e-01 8.81e-01h  1
iter    objective    inf_pr   inf_du lg(mu)  ||d||  lg(rg) alpha_du alpha_pr  ls
  10  6.3791591e+04 2.81e-03 8.69e-01  -1.0 1.80e+00    -  7.56e-01 1.00e+00h  1
  11  6.3501035e+04 8.45e-04 6.22e-01  -1.7 1.69e-01    -  8.51e-01 1.00e+00f  1
  12  6.3454934e+04 1.01e-03 1.25e-02  -1.7 1.02e-01    -  1.00e+00 1.00e+00h  1
  13  6.3378082e+04 8.53e-04 1.25e-01  -3.8 1.49e-01    -  8.03e-01 7.30e-01f  1
  14  6.3364849e+04 4.38e-04 2.13e+00  -3.8 2.00e-01    -  7.95e-01 5.13e-01h  1
  15  6.3352717e+04 1.22e-04 8.47e-02  -3.8 2.47e-01    -  1.00e+00 9.79e-01h  1
  16  6.3352941e+04 1.86e-06 2.89e-05  -3.8 9.06e-03    -  1.00e+00 1.00e+00h  1
  17  6.3352216e+04 3.36e-07 5.07e-04  -5.7 9.37e-03    -  9.90e-01 9.93e-01h  1
  18  6.3352210e+04 1.17e-09 2.51e-08  -5.7 1.81e-04    -  1.00e+00 1.00e+00h  1
  19  6.3352201e+04 5.65e-11 8.23e-10  -8.6 1.04e-04    -  1.00e+00 1.00e+00h  1

Number of Iterations....: 19

                                   (scaled)                 (unscaled)
Objective...............:   4.8732462373895476e+02    6.3352201086064117e+04
Dual infeasibility......:   8.2319328523561080e-10    1.0701512708062940e-07
Constraint violation....:   5.6526616720731226e-11    5.6526616720731226e-11
Complementarity.........:   3.7503243487898890e-09    4.8754216534268555e-07
Overall NLP error.......:   3.7503243487898890e-09    4.8754216534268555e-07


Number of objective function evaluations             = 21
Number of objective gradient evaluations             = 20
Number of equality constraint evaluations            = 21
Number of inequality constraint evaluations          = 21
Number of equality constraint Jacobian evaluations   = 20
Number of inequality constraint Jacobian evaluations = 20
Number of Lagrangian Hessian evaluations             = 19
Total CPU secs in IPOPT (w/o function evaluations)   =      1.302
Total CPU secs in NLP function evaluations           =      2.315

EXIT: Optimal Solution Found.
Time to Solution........:4.347615003585815
